% demand
num_movements = 17;
loading_factor = [850, 1950, 1700, 800, 1100, 1900, 1000, 1050, 850, 1100, 1550, 1500, 1850, 900, 1300, 1250, 1400];
pickup_time = [0, 1, 1, 2, 3, 3, 3, 3, 3, 3, 4, 4, 6, 6, 6, 6, 6];
delivery_time = [2, 2, 2, 3, 5, 4, 6, 4, 4, 4, 6, 6, 8, 8, 8, 8, 7];

% transporter definition
total_capacity = 7000;
num_decks = 3;
capacity = [3000, 1000, 3000];

% ways out of decks
num_ways_out = 1;
paths_out = array3d(decks, ways_out, decks, [
% ways out of deck d1
2, 3, 0, 

% ways out of deck d2
3, 0, 0, 

% ways out of deck d3
0, 0, 0,	

]);

